SYSTEM = BN
PREC = Normal
EDIFF = 1e-3
IBRION = 2
SYMPREC=1e-4
ISIF = 4
KSPACING=0.8
NSW = 55
ISMEAR = 0 ; SIGMA = 0.05
POTIM = 0.200
#Wavefunction and charge
ISTART = 0
LWAVE = FALSE
LCHARG = FALSE
#Target Pressure
PSTRESS = 3000
#Crude optimisation

