ATOMIC_SPECIES
Mg 24.305 Mg_ONCV_PBE-1.0.upf
O  15.999 O_ONCV_PBE-1.0.upf

LATTICE_CONSTANT
1.8897259886 	# 1.8897259886 Bohr = 1.0 Angstrom

LATTICE_VECTORS
4.25648 0.00000 0.00000
0.00000 4.25648 0.00000
0.00000 0.00000 4.25648

ATOMIC_POSITIONS
Direct 
Mg 
0.0 
4 
0.0 0.0 0.0 1 1 1 
0.0 0.5 0.5 1 1 1
0.5 0.0 0.5 1 1 1
0.5 0.5 0.0 1 1 1

O
0.0 
4 
0.5 0.0 0.0 1 1 1
0.5 0.5 0.5 1 1 1 
0.0 0.0 0.5 1 1 1 
0.0 0.5 0.0 1 1 1
