SYSTEM = HCNO
PREC = LOW
EDIFF = 1e-2
IBRION = 2
SYMPREC=1e-4
ISIF = 2
KSPACING=0.7
NSW = 45
ISMEAR = 0 ; SIGMA = 0.05
POTIM = 0.50
#Wavefunction and charge
LWAVE = FALSE
LCHARG = FALSE
ISTART = 0
#Target Pressure
PSTRESS = 5000
