INPUT_PARAMETERS
# Parameters (1.General)
suffix                  ABACUS
calculation             cell-relax
ntype                   2
# symmetry                0
# symmetry_prec           1.8897e-3

#Parameters (2.Iteration)
relax_nmax              30
force_thr_ev            0.01
stress_thr              5
relax_method            cg
out_stru                1

ecutwfc                 80
scf_thr                 1e-5
scf_nmax                60

cal_force               1
cal_stress              1

#Parameters (3.Basis)
basis_type              pw

#Parameters (4.Smearing)
smearing_method         mp
smearing_sigma          0.0146

#Parameters (5.Mixing)
mixing_type             pulay
mixing_beta             0.7

ks_solver               dav
kspacing                0.2
#kpar                    4

#Parameters (6.Stress)
test_stress             1
press1                  1600
press2                  1600
press3                  1600
