ATOMIC_SPECIES
Mg 24.305 Mg_ONCV_PBE-1.0.upf
O  15.999 O_ONCV_PBE-1.0.upf

LATTICE_CONSTANT
1.8897261254578281     
