ATOMIC_SPECIES
B 10.81  B_ONCV_PBE-1.0.upf
N 14.01  N_ONCV_PBE-1.0.upf 

LATTICE_CONSTANT
1.8897261254578281     
