SYSTEM = local optimisation
PREC = Accurate 
ENCUT = 600.0
EDIFF = 1e-5
KSPACING=0.5
SYMPREC=1e-4
IBRION = 2
ISIF = 3
NSW = 200
ISMEAR = 0 ; SIGMA = 0.05
POTIM = 0.10
#Wavefunction and charge
LWAVE = FALSE
LCHARG = FALSE
#Target Pressure
PSTRESS = 3000

